unknown
(model
; cardinality of BoundSet is 2
(declare-sort BoundSet 0)
; rep: @uc_BoundSet_0
; rep: @uc_BoundSet_1
; cardinality of UnboundSet is 1
(declare-sort UnboundSet 0)
(declare-fun groundTerm_3 () UnboundSet)
(define-fun Failed ((BOUND_VARIABLE_391 BoundSet) (BOUND_VARIABLE_392 BoundSet)) Bool true)
(define-fun IsAtFault ((BOUND_VARIABLE_399 BoundSet)) Bool false)
(define-fun HasNeed ((BOUND_VARIABLE_399 BoundSet)) Bool false)
(define-fun IsToSteal ((BOUND_VARIABLE_399 BoundSet)) Bool false)
)
sat
(model
; cardinality of BoundSet is 1
(declare-sort BoundSet 0)
; rep: @uc_BoundSet_0
; cardinality of UnboundSet is 1
(declare-sort UnboundSet 0)
(declare-fun groundTerm_5 () UnboundSet)
(define-fun Failed ((BOUND_VARIABLE_417 BoundSet) (BOUND_VARIABLE_418 BoundSet)) Bool true)
(define-fun IsAtFault ((BOUND_VARIABLE_422 BoundSet)) Bool false)
(define-fun HasNeed ((BOUND_VARIABLE_422 BoundSet)) Bool false)
(define-fun IsToSteal ((BOUND_VARIABLE_422 BoundSet)) Bool false)
)
